c generated by sgen
p cnf 93 196
-2 -3 -4 0
-1 -3 -4 0
-1 -2 -4 0
-1 -2 -3 0
-6 -7 -8 0
-5 -7 -8 0
-5 -6 -8 0
-5 -6 -7 0
-10 -11 -12 0
-9 -11 -12 0
-9 -10 -12 0
-9 -10 -11 0
-14 -15 -16 0
-13 -15 -16 0
-13 -14 -16 0
-13 -14 -15 0
-18 -19 -20 0
-17 -19 -20 0
-17 -18 -20 0
-17 -18 -19 0
-22 -23 -24 0
-21 -23 -24 0
-21 -22 -24 0
-21 -22 -23 0
-26 -27 -28 0
-25 -27 -28 0
-25 -26 -28 0
-25 -26 -27 0
-30 -31 -32 0
-29 -31 -32 0
-29 -30 -32 0
-29 -30 -31 0
-34 -35 -36 0
-33 -35 -36 0
-33 -34 -36 0
-33 -34 -35 0
-38 -39 -40 0
-37 -39 -40 0
-37 -38 -40 0
-37 -38 -39 0
-42 -43 -44 0
-41 -43 -44 0
-41 -42 -44 0
-41 -42 -43 0
-46 -47 -48 0
-45 -47 -48 0
-45 -46 -48 0
-45 -46 -47 0
-50 -51 -52 0
-49 -51 -52 0
-49 -50 -52 0
-49 -50 -51 0
-54 -55 -56 0
-53 -55 -56 0
-53 -54 -56 0
-53 -54 -55 0
-58 -59 -60 0
-57 -59 -60 0
-57 -58 -60 0
-57 -58 -59 0
-62 -63 -64 0
-61 -63 -64 0
-61 -62 -64 0
-61 -62 -63 0
-66 -67 -68 0
-65 -67 -68 0
-65 -66 -68 0
-65 -66 -67 0
-70 -71 -72 0
-69 -71 -72 0
-69 -70 -72 0
-69 -70 -71 0
-74 -75 -76 0
-73 -75 -76 0
-73 -74 -76 0
-73 -74 -75 0
-78 -79 -80 0
-77 -79 -80 0
-77 -78 -80 0
-77 -78 -79 0
-82 -83 -84 0
-81 -83 -84 0
-81 -82 -84 0
-81 -82 -83 0
-86 -87 -88 0
-85 -87 -88 0
-85 -86 -88 0
-85 -86 -87 0
-89 -90 -91 0
-89 -90 -92 0
-89 -90 -93 0
-89 -91 -92 0
-89 -91 -93 0
-89 -92 -93 0
-90 -91 -92 0
-90 -91 -93 0
-90 -92 -93 0
-91 -92 -93 0
81 15 17 0
53 15 17 0
53 81 17 0
53 81 15 0
82 91 40 0
21 91 40 0
21 82 40 0
21 82 91 0
83 86 51 0
62 86 51 0
62 83 51 0
62 83 86 0
13 28 11 0
92 28 11 0
92 13 11 0
92 13 28 0
31 27 33 0
50 27 33 0
50 31 33 0
50 31 27 0
65 36 24 0
3 36 24 0
3 65 24 0
3 65 36 0
60 39 42 0
63 39 42 0
63 60 42 0
63 60 39 0
49 47 73 0
67 47 73 0
67 49 73 0
67 49 47 0
25 77 66 0
58 77 66 0
58 25 66 0
58 25 77 0
1 43 37 0
45 43 37 0
45 1 37 0
45 1 43 0
55 26 90 0
71 26 90 0
71 55 90 0
71 55 26 0
64 56 46 0
34 56 46 0
34 64 46 0
34 64 56 0
72 7 59 0
76 7 59 0
76 72 59 0
76 72 7 0
68 5 52 0
93 5 52 0
93 68 52 0
93 68 5 0
79 89 4 0
20 89 4 0
20 79 4 0
20 79 89 0
23 80 74 0
41 80 74 0
41 23 74 0
41 23 80 0
14 78 38 0
87 78 38 0
87 14 38 0
87 14 78 0
69 22 12 0
30 22 12 0
30 69 12 0
30 69 22 0
10 57 35 0
84 57 35 0
84 10 35 0
84 10 57 0
70 18 85 0
44 18 85 0
44 70 85 0
44 70 18 0
88 54 2 0
8 54 2 0
8 88 2 0
8 88 54 0
16 32 48 0
6 32 48 0
6 16 48 0
6 16 32 0
29 19 75 0
29 19 61 0
29 19 9 0
29 75 61 0
29 75 9 0
29 61 9 0
19 75 61 0
19 75 9 0
19 61 9 0
75 61 9 0
